4 10
107 118 85 104 
0 6 48 83 66 67 85 44 3 86 34 2 71 71 99 96 13 62 25 11 24 1
1 51 80 67 15 76 57 84 92 56 57 13 72 26 7 95 37 39 38 5 60 1
2 60 86 61 57 69 27 70 98 96 70 97 37 21 29 53 73 11 77 9 32 2
3 36 15 21 62 97 16 74 63 52 47 71 85 24 75 81 57 35 87 90 88 1
4 18 16 86 59 63 9 31 60 49 98 5 55 72 24 8 63 58 73 97 3 3
5 89 66 98 20 6 67 15 21 88 2 85 12 12 26 31 74 69 31 79 76 2
6 62 57 10 84 67 10 15 37 32 93 14 96 43 70 8 69 64 51 87 45 4
7 48 40 88 78 21 17 61 55 91 77 97 9 85 46 77 29 48 14 15 25 3
8 23 97 75 64 36 38 88 5 33 63 23 57 70 8 22 85 17 14 37 10 3
9 3 30 63 85 32 31 92 86 22 33 66 79 91 92 81 63 60 82 69 24 4
